************************************************************************
file with basedata            : n/a
initial value random generator: n/a
************************************************************************
projects                      :  1
jobs (incl. supersource/sink ):  122
horizon                       :  630
RESOURCES
  - renewable                 :  4   R
  - nonrenewable              :  0   N
  - doubly constrained        :  0   D
************************************************************************
PROJECT INFORMATION:
pronr.  #jobs rel.date duedate tardcost  MPM-Time
    1    120      0       85       18       85
************************************************************************
PRECEDENCE RELATIONS:
jobnr.    #modes  #successors   successors
   1        1          3           2   3   4
   2        1          3           5   6   7
   3        1          3           8  14  15
   4        1          3           5  17  96
   5        1          3          29  65  83
   6        1          3          11  13  33
   7        1          3           9  10  16
   8        1          3          12  18  21
   9        1          3          19  31  34
  10        1          3          20 106 108
  11        1          3          32  40  52
  12        1          3          26  27  39
  13        1          3          23  57  76
  14        1          3          37  69  73
  15        1          3          22  24  29
  16        1          3          30  79 116
  17        1          2          82 117
  18        1          3          25  43 113
  19        1          3          33  36  62
  20        1          3          51  90 115
  21        1          3          41  44  49
  22        1          3          53  67  93
  23        1          3          51  74  98
  24        1          2          67  85
  25        1          3          36  38  75
  26        1          3          28  60 107
  27        1          3          47  55  58
  28        1          1          59
  29        1          1         111
  30        1          2          31  35
  31        1          3          32  45  54
  32        1          1          70
  33        1          3          46  50  87
  34        1          3          38  68  99
  35        1          3          41  48  56
  36        1          3          54  76  81
  37        1          3          48  54  70
  38        1          3          48  49  81
  39        1          3          60  84 108
  40        1          2          42  68
  41        1          3          61  63  65
  42        1          3          45  67  98
  43        1          1          95
  44        1          2          79 118
  45        1          2          49  92
  46        1          3          72  80  82
  47        1          3          62  63  74
  48        1          3          71  83  93
  49        1          3          51  85  97
  50        1          3          53  59  68
  51        1          2         100 102
  52        1          3          73  91 120
  53        1          3          90 106 112
  54        1          2          65 103
  55        1          2          61  64
  56        1          1          61
  57        1          2          75  87
  58        1          3          77  79  99
  59        1          3          81  86  98
  60        1          2          63  66
  61        1          3          71  78  96
  62        1          2          71  77
  63        1          2          70 100
  64        1          1          74
  65        1          2          72 101
  66        1          3          73  94 112
  67        1          2          89 105
  68        1          3          77  82 104
  69        1          3          76  80  84
  70        1          2          85  86
  71        1          3          72  90  94
  72        1          1         100
  73        1          1          78
  74        1          3          80  83 109
  75        1          3          89  93 107
  76        1          2          78  87
  77        1          2          96 105
  78        1          1          88
  79        1          3          88  91  92
  80        1          2          89  95
  81        1          3          91  92 104
  82        1          2          84  86
  83        1          1         118
  84        1          3          88 105 113
  85        1          1         111
  86        1          1         102
  87        1          3          95 103 107
  88        1          1         101
  89        1          2          94  99
  90        1          1         114
  91        1          2          97 101
  92        1          1         102
  93        1          2          97 111
  94        1          1         103
  95        1          2         104 108
  96        1          1         121
  97        1          1         109
  98        1          1         113
  99        1          1         106
 100        1          1         117
 101        1          1         109
 102        1          1         112
 103        1          1         114
 104        1          2         110 117
 105        1          1         110
 106        1          1         116
 107        1          2         110 121
 108        1          1         114
 109        1          1         115
 110        1          1         116
 111        1          1         118
 112        1          1         119
 113        1          1         115
 114        1          1         120
 115        1          1         121
 116        1          1         119
 117        1          1         119
 118        1          1         120
 119        1          1         122
 120        1          1         122
 121        1          1         122
 122        1          0        
************************************************************************
REQUESTS/DURATIONS:
jobnr. mode duration  R 1  R 2  R 3  R 4
------------------------------------------------------------------------
  1      1     0    
  2      1     1       1
                       5
                       1
                       7
  3      1     5       0   0   0   0   0
                       2   3   3   3   3
                       3   6   6   6   6
                       2   4   4   4   4
  4      1     9       3   3   3   3   3   3   3   3   3
                       7   7   7   7   7   7   7   7   7
                       6   6   6   6   6   6   6   6   6
                       0   0   0   0   0   0   0   0   0
  5      1     2       8   8
                       7   7
                       4   4
                       0   0
  6      1     4       2   3   2   3
                       0   0   0   0
                       1   1   1   1
                       0   0   0   0
  7      1     2       3   3
                       1   1
                       1   1
                       2   2
  8      1     8       9   9   9   9   9   9   5   9
                       6   6   6   6   6   6   3   6
                       8   8   8   8   8   8   4   8
                       8   8   8   8   8   8   4   8
  9      1     9       0   0   0   0   0   0   0   0   0
                       0   0   0   0   0   0   0   0   0
                       0   0   0   0   0   0   0   0   0
                       5   5   5   5   3   5   5   5   5
 10      1     1       4
                       9
                       5
                       6
 11      1     3       0   0   0
                       5   9   9
                       0   0   0
                       2   4   4
 12      1     6       5   5   5   5   5   5
                       0   0   0   0   0   0
                       3   3   3   3   3   3
                       7   7   7   7   7   7
 13      1     3       1   1   1
                       4   4   4
                       5   5   5
                       1   1   1
 14      1     4       0   0   0   0
                       5   5   5   5
                      10  10  10  10
                       8   8   8   8
 15      1     2       0   0
                       8   4
                       8   4
                       0   0
 16      1     5       0   0   0   0   0
                       4   4   4   4   4
                       9   9   9   9   9
                       6   6   6   6   6
 17      1     6       3   3   3   3   3   3
                       3   3   3   3   3   3
                       0   0   0   0   0   0
                       1   1   1   1   1   1
 18      1     5       3   3   3   3   3
                       2   2   2   2   2
                       0   0   0   0   0
                       0   0   0   0   0
 19      1     6       1   1   1   1   1   1
                       0   0   0   0   0   0
                       2   2   2   2   2   2
                       2   2   2   2   2   2
 20      1     7       1   1   1   1   1   1   1
                       6   6   3   6   6   6   6
                       0   0   0   0   0   0   0
                       5   5   3   5   5   5   5
 21      1     5       0   0   0   0   0
                       1   1   1   1   1
                       4   4   4   4   4
                       4   4   4   4   4
 22      1     2       0   0
                      10  10
                       5   5
                       8   8
 23      1     4       1   1   1   1
                       6   6   6   6
                       0   0   0   0
                       3   3   3   3
 24      1     8       2   2   2   2   2   2   2   2
                       9   9   9   9   9   9   9   9
                       2   2   2   2   2   2   2   2
                       0   0   0   0   0   0   0   0
 25      1     1      10
                       0
                       4
                       8
 26      1     9      10   5  10  10  10  10  10  10  10
                       9   5   9   9   9   9   9   9   9
                       3   2   3   3   3   3   3   3   3
                       3   2   3   3   3   3   3   3   3
 27      1    10       0   0   0   0   0   0   0   0   0   0
                       9   5   9   9   9   5   9   9   9   5
                       9   5   9   9   9   5   9   9   9   5
                       9   5   9   9   9   5   9   9   9   5
 28      1     4       5   3   5   3
                       3   2   3   2
                       0   0   0   0
                      10   5  10   5
 29      1     5       3   3   3   3   3
                       6   6   6   6   6
                       6   6   6   6   6
                      10  10  10  10  10
 30      1     9      10  10  10  10  10  10  10  10  10
                       6   6   6   6   6   6   6   6   6
                       0   0   0   0   0   0   0   0   0
                       6   6   6   6   6   6   6   6   6
 31      1     3       3   3   2
                       0   0   0
                       3   3   2
                       3   3   2
 32      1     3       5   3   5
                      10   5  10
                       7   4   7
                       5   3   5
 33      1    10       4   4   4   4   4   4   4   4   4   4
                       9   9   9   9   9   9   9   9   9   9
                       4   4   4   4   4   4   4   4   4   4
                       7   7   7   7   7   7   7   7   7   7
 34      1     5       5   5   5   3   5
                       0   0   0   0   0
                       7   7   7   4   7
                       5   5   5   3   5
 35      1     1       9
                       4
                       4
                       1
 36      1     7       8   8   4   8   8   8   8
                       0   0   0   0   0   0   0
                       1   1   1   1   1   1   1
                       2   2   1   2   2   2   2
 37      1     4       7   7   7   4
                       1   1   1   1
                       0   0   0   0
                       0   0   0   0
 38      1     9       7   7   7   4   4   7   7   7   7
                       4   4   4   2   2   4   4   4   4
                       5   5   5   3   3   5   5   5   5
                       9   9   9   5   5   9   9   9   9
 39      1     6       0   0   0   0   0   0
                       1   2   2   1   2   2
                       3   6   6   3   6   6
                       0   0   0   0   0   0
 40      1     3       0   0   0
                       6   6   3
                      10  10   5
                       0   0   0
 41      1    10       1   1   1   1   1   1   1   1   1   1
                       4   4   4   4   4   4   4   4   4   4
                       0   0   0   0   0   0   0   0   0   0
                       4   4   4   4   4   4   4   4   4   4
 42      1     1       9
                       3
                       4
                       8
 43      1    10       3   3   3   3   3   3   3   3   2   3
                       5   5   5   5   5   5   5   5   3   5
                       0   0   0   0   0   0   0   0   0   0
                       3   3   3   3   3   3   3   3   2   3
 44      1     6       8   8   8   8   8   8
                       2   2   2   2   2   2
                       6   6   6   6   6   6
                       3   3   3   3   3   3
 45      1     3       1   1   1
                      10  10  10
                       5   5   5
                       4   4   4
 46      1     8       5   5   5   5   5   5   5   3
                       0   0   0   0   0   0   0   0
                       3   3   3   3   3   3   3   2
                       0   0   0   0   0   0   0   0
 47      1     6       0   0   0   0   0   0
                       5   5   5   5   5   5
                       0   0   0   0   0   0
                       8   8   8   8   8   8
 48      1    10       9   9   9   9   9   9   5   9   9   9
                       9   9   9   9   9   9   5   9   9   9
                       6   6   6   6   6   6   3   6   6   6
                       0   0   0   0   0   0   0   0   0   0
 49      1    10       0   0   0   0   0   0   0   0   0   0
                       0   0   0   0   0   0   0   0   0   0
                       2   3   3   3   3   3   3   3   3   3
                       0   0   0   0   0   0   0   0   0   0
 50      1     4       4   4   4   4
                       4   4   4   4
                       0   0   0   0
                      10  10  10  10
 51      1     2       2   2
                       4   4
                       0   0
                       0   0
 52      1     6       1   1   1   1   1   1
                       2   2   2   2   2   2
                       3   3   3   3   3   3
                       5   5   5   5   5   5
 53      1     1       8
                       1
                      10
                       9
 54      1     2       1   1
                       9   9
                       6   6
                       8   8
 55      1     3       0   0   0
                       0   0   0
                       5   5   5
                       9   9   9
 56      1     1       7
                       4
                       0
                       3
 57      1     1       7
                       0
                       0
                       5
 58      1     7       0   0   0   0   0   0   0
                       0   0   0   0   0   0   0
                       8   8   4   8   8   8   8
                       8   8   4   8   8   8   8
 59      1    10       3   6   6   6   6   6   3   6   6   6
                       3   6   6   6   6   6   3   6   6   6
                       0   0   0   0   0   0   0   0   0   0
                       0   0   0   0   0   0   0   0   0   0
 60      1     3       0   0   0
                       9   9   9
                       8   8   8
                       4   4   4
 61      1     6       8   8   8   4   8   8
                       0   0   0   0   0   0
                       8   8   8   4   8   8
                       5   5   5   3   5   5
 62      1     2       0   0
                       1   1
                       8   8
                       0   0
 63      1     2       0   0
                       5   9
                       1   2
                       0   0
 64      1     1       0
                       1
                       2
                       2
 65      1     5       3   2   3   3   3
                       3   2   3   3   3
                       2   1   2   2   2
                       2   1   2   2   2
 66      1     4       6   6   6   6
                       0   0   0   0
                       3   3   3   3
                       0   0   0   0
 67      1     8       4   4   2   4   4   4   4   4
                       9   9   5   9   9   9   9   9
                       2   2   1   2   2   2   2   2
                       0   0   0   0   0   0   0   0
 68      1     7       2   2   3   3   3   3   3
                       3   3   6   6   6   6   6
                       2   2   3   3   3   3   3
                       3   3   6   6   6   6   6
 69      1     4       1   1   1   1
                      10  10  10  10
                       6   6   6   6
                      10  10  10  10
 70      1     4       2   2   2   2
                       1   1   1   1
                       1   1   1   1
                       0   0   0   0
 71      1     8       7   7   7   7   7   7   7   7
                       6   6   6   6   6   6   6   6
                       3   3   3   3   3   3   3   3
                       5   5   5   5   5   5   5   5
 72      1     6       0   0   0   0   0   0
                       0   0   0   0   0   0
                       5   5   5   5   5   5
                       2   2   2   2   2   2
 73      1    10       7   7   7   7   7   7   7   7   7   7
                       0   0   0   0   0   0   0   0   0   0
                       1   1   1   1   1   1   1   1   1   1
                       0   0   0   0   0   0   0   0   0   0
 74      1     8       6   3   6   6   6   6   6   6
                       8   4   8   8   8   8   8   8
                       5   3   5   5   5   5   5   5
                       4   2   4   4   4   4   4   4
 75      1     1      10
                       0
                       9
                       8
 76      1     5       4   4   4   4   4
                       2   2   2   2   2
                       9   9   9   9   9
                       0   0   0   0   0
 77      1     2       0   0
                       6   6
                       2   2
                       4   4
 78      1     9       3   3   3   3   3   3   2   3   3
                       5   5   5   5   5   5   3   5   5
                       2   2   2   2   2   2   1   2   2
                       9   9   9   9   9   9   5   9   9
 79      1     7       0   0   0   0   0   0   0
                       4   4   2   4   4   4   4
                      10  10   5  10  10  10  10
                       2   2   1   2   2   2   2
 80      1     7       2   2   2   2   2   2   2
                       0   0   0   0   0   0   0
                      10  10  10  10  10  10  10
                       6   6   6   6   6   6   6
 81      1     1       7
                       9
                       0
                       9
 82      1     9       6   6   6   6   6   6   6   6   6
                       0   0   0   0   0   0   0   0   0
                       3   3   3   3   3   3   3   3   3
                       0   0   0   0   0   0   0   0   0
 83      1     1       2
                       2
                       1
                       3
 84      1     5       3   3   3   3   3
                       9   9   9   9   9
                      10  10  10  10  10
                       0   0   0   0   0
 85      1     2       2   2
                       5   5
                       2   2
                       0   0
 86      1    10       0   0   0   0   0   0   0   0   0   0
                       4   4   4   4   4   4   4   4   4   4
                       2   2   2   2   2   2   2   2   2   2
                       3   3   3   3   3   3   3   3   3   3
 87      1     6      10  10  10  10  10  10
                       9   9   9   9   9   9
                       6   6   6   6   6   6
                       1   1   1   1   1   1
 88      1     9       7   7   7   7   7   7   7   7   7
                       1   1   1   1   1   1   1   1   1
                       4   4   4   4   4   4   4   4   4
                      10  10  10  10  10  10  10  10  10
 89      1     1       0
                       0
                       0
                       7
 90      1     1       0
                       0
                       7
                       7
 91      1     7       8   8   8   4   8   8   8
                       0   0   0   0   0   0   0
                       1   1   1   1   1   1   1
                       9   9   9   5   9   9   9
 92      1     5       3   5   5   5   5
                       0   0   0   0   0
                       0   0   0   0   0
                       5  10  10  10  10
 93      1     8      10  10  10  10  10  10  10  10
                       9   9   9   9   9   9   9   9
                       7   7   7   7   7   7   7   7
                      10  10  10  10  10  10  10  10
 94      1    10      10  10  10  10  10  10  10  10  10  10
                       0   0   0   0   0   0   0   0   0   0
                       4   4   4   4   4   4   4   4   4   4
                       6   6   6   6   6   6   6   6   6   6
 95      1    10       0   0   0   0   0   0   0   0   0   0
                      10  10  10  10  10  10  10  10  10  10
                       0   0   0   0   0   0   0   0   0   0
                       9   9   9   9   9   9   9   9   9   9
 96      1     8      10  10  10   5  10  10  10  10
                       7   7   7   4   7   7   7   7
                       6   6   6   3   6   6   6   6
                       5   5   5   3   5   5   5   5
 97      1     5       0   0   0   0   0
                       3   3   3   3   3
                       0   0   0   0   0
                       2   2   2   2   2
 98      1     4       6   6   6   6
                       7   7   7   7
                       2   2   2   2
                       5   5   5   5
 99      1     8       2   3   3   3   3   3   3   3
                       0   0   0   0   0   0   0   0
                       0   0   0   0   0   0   0   0
                       5   9   9   9   9   9   9   9
100      1     2       3   3
                      10  10
                       1   1
                       7   7
101      1     1       6
                       7
                       0
                      10
102      1     7       8   8   8   8   8   8   8
                       2   2   2   2   2   2   2
                       7   7   7   7   7   7   7
                       3   3   3   3   3   3   3
103      1     2       8   4
                      10   5
                       8   4
                       4   2
104      1    10       8   8   8   8   8   8   8   8   8   8
                       0   0   0   0   0   0   0   0   0   0
                       8   8   8   8   8   8   8   8   8   8
                       8   8   8   8   8   8   8   8   8   8
105      1     2       0   0
                       8   8
                       4   4
                       1   1
106      1     6       3   3   3   3   3   3
                       3   3   3   3   3   3
                       8   8   8   8   8   8
                       0   0   0   0   0   0
107      1     6       5   9   9   9   9   9
                       4   8   8   8   8   8
                       4   8   8   8   8   8
                       3   6   6   6   6   6
108      1     6       0   0   0   0   0   0
                       3   3   3   3   3   3
                       4   4   4   4   4   4
                       6   6   6   6   6   6
109      1     8       5  10  10  10  10  10  10  10
                       5  10  10  10  10  10  10  10
                       5  10  10  10  10  10  10  10
                       0   0   0   0   0   0   0   0
110      1     8       3   3   3   3   3   2   3   3
                       8   8   8   8   8   4   8   8
                       4   4   4   4   4   2   4   4
                       0   0   0   0   0   0   0   0
111      1     2       8   8
                       5   5
                       2   2
                       2   2
112      1     8       3   3   3   3   3   3   2   3
                       6   6   6   6   6   6   3   6
                       8   8   8   8   8   8   4   8
                       0   0   0   0   0   0   0   0
113      1    10       0   0   0   0   0   0   0   0   0   0
                       0   0   0   0   0   0   0   0   0   0
                       3   3   3   3   3   3   3   3   3   3
                       5   5   5   5   5   5   5   5   5   5
114      1     8       1   1   1   1   1   1   1   1
                       5  10   5  10  10  10  10  10
                       0   0   0   0   0   0   0   0
                       5  10   5  10  10  10  10  10
115      1     4       0   0   0   0
                       0   0   0   0
                       2   2   2   2
                       0   0   0   0
116      1     1       0
                       8
                       1
                       1
117      1     1       8
                       0
                       0
                       8
118      1     2       9   9
                      10  10
                       8   8
                       0   0
119      1     6       0   0   0   0   0   0
                       8   8   8   8   8   8
                      10  10  10  10  10  10
                       0   0   0   0   0   0
120      1    10       5   9   9   9   9   9   9   9   9   9
                       2   4   4   4   4   4   4   4   4   4
                       1   1   1   1   1   1   1   1   1   1
                       3   6   6   6   6   6   6   6   6   6
121      1     4      10  10  10   5
                       1   1   1   1
                       7   7   7   4
                       7   7   7   4
122      1     0    
************************************************************************
RESOURCEAVAILABILITIES:
  R 1  R 2  R 3  R 4

  16  16  16  16   8  16  16  16  16  16  16  16   8  16  16  16  16  16  16  16  16  16  16  16  16  16   8  16  16  16  16  16  16  16  16  16  16  16  16  16  16  16  16  16  16  16  16  16  16   8  16  16  16  16  16  16  16   8  16  16   8  16  16  16  16  16  16  16  16  16  16   8  16  16  16  16  16  16  16  16  16  16  16  16  16   8  16   8  16  16  16  16  16  16  16  16  16  16  16  16  16  16  16   8  16  16  16  16  16   8  16  16  16  16  16  16  16  16  16  16  16  16  16  16  16  16  16  16  16  16  16  16  16  16  16  16   8  16  16  16  16   8  16  16  16  16  16  16  16  16  16  16   8  16   8  16  16  16  16  16  16  16  16  16  16  16  16  16  16  16  16   8  16  16  16  16  16  16  16   8   8  16   8  16  16  16  16  16  16  16  16  16  16  16  16  16  16  16  16  16   8  16  16  16  16  16  16  16  16  16  16  16  16  16  16  16  16  16   8  16  16  16  16  16  16  16  16  16  16  16  16  16  16  16  16   8  16  16  16  16  16  16  16  16  16  16  16  16  16  16  16  16  16  16  16  16  16   8  16  16  16  16  16  16  16  16  16  16  16  16  16   8  16  16  16  16  16  16  16  16  16  16  16  16  16  16  16  16  16  16  16  16  16   8  16  16  16  16  16  16  16  16  16  16  16  16  16  16   8  16  16  16  16  16   8  16   8  16  16  16  16  16  16  16  16  16  16  16  16  16  16  16  16  16  16  16  16  16   8  16  16  16  16   8  16   8   8  16  16  16  16  16   8  16  16  16  16   8  16  16  16  16  16  16  16  16  16  16  16   8  16  16  16   8  16  16  16  16  16  16  16  16   8  16  16  16  16  16  16  16  16  16  16   8  16  16  16  16  16  16  16  16  16  16  16  16  16  16   8  16  16  16  16  16  16  16  16  16  16   8  16  16  16   8  16  16  16   8  16  16  16  16  16  16  16  16  16  16  16  16  16  16  16  16  16   8  16  16  16  16  16  16  16  16   8  16  16  16  16  16  16  16  16  16  16  16   8  16  16  16  16  16  16  16  16  16  16  16  16  16  16  16  16  16  16  16  16  16  16  16  16   8  16  16  16  16  16  16  16  16  16  16  16  16  16  16  16  16  16  16   8  16  16  16  16  16  16  16  16  16  16  16  16  16  16  16  16  16  16  16  16   8  16   8  16  16  16  16  16  16   8  16  16  16  16  16  16  16  16  16  16  16  16  16  16  16   8  16  16  16  16  16  16  16   8  16  16  16   8  16  16  16  16  16  16  16  16  16  16  16  16  16  16  16  16  16  16  16  16  16  16  16  16  16  16  16  16  16  16  16  16  16  16  16  16  16  16  16  16  16  16  16  16  16  16  16  16  16  16  16  16   8  16  16  16  16  16  16  16  16

  16  16  16  16   8  16  16  16  16  16  16  16   8  16  16  16  16  16  16  16  16  16  16  16  16  16   8  16  16  16  16  16  16  16  16  16  16  16  16  16  16  16  16  16  16  16  16  16  16   8  16  16  16  16  16  16  16   8  16  16   8  16  16  16  16  16  16  16  16  16  16   8  16  16  16  16  16  16  16  16  16  16  16  16  16   8  16   8  16  16  16  16  16  16  16  16  16  16  16  16  16  16  16   8  16  16  16  16  16   8  16  16  16  16  16  16  16  16  16  16  16  16  16  16  16  16  16  16  16  16  16  16  16  16  16  16   8  16  16  16  16   8  16  16  16  16  16  16  16  16  16  16   8  16   8  16  16  16  16  16  16  16  16  16  16  16  16  16  16  16  16   8  16  16  16  16  16  16  16   8   8  16   8  16  16  16  16  16  16  16  16  16  16  16  16  16  16  16  16  16   8  16  16  16  16  16  16  16  16  16  16  16  16  16  16  16  16  16   8  16  16  16  16  16  16  16  16  16  16  16  16  16  16  16  16   8  16  16  16  16  16  16  16  16  16  16  16  16  16  16  16  16  16  16  16  16  16   8  16  16  16  16  16  16  16  16  16  16  16  16  16   8  16  16  16  16  16  16  16  16  16  16  16  16  16  16  16  16  16  16  16  16  16   8  16  16  16  16  16  16  16  16  16  16  16  16  16  16   8  16  16  16  16  16   8  16   8  16  16  16  16  16  16  16  16  16  16  16  16  16  16  16  16  16  16  16  16  16   8  16  16  16  16   8  16   8   8  16  16  16  16  16   8  16  16  16  16   8  16  16  16  16  16  16  16  16  16  16  16   8  16  16  16   8  16  16  16  16  16  16  16  16   8  16  16  16  16  16  16  16  16  16  16   8  16  16  16  16  16  16  16  16  16  16  16  16  16  16   8  16  16  16  16  16  16  16  16  16  16   8  16  16  16   8  16  16  16   8  16  16  16  16  16  16  16  16  16  16  16  16  16  16  16  16  16   8  16  16  16  16  16  16  16  16   8  16  16  16  16  16  16  16  16  16  16  16   8  16  16  16  16  16  16  16  16  16  16  16  16  16  16  16  16  16  16  16  16  16  16  16  16   8  16  16  16  16  16  16  16  16  16  16  16  16  16  16  16  16  16  16   8  16  16  16  16  16  16  16  16  16  16  16  16  16  16  16  16  16  16  16  16   8  16   8  16  16  16  16  16  16   8  16  16  16  16  16  16  16  16  16  16  16  16  16  16  16   8  16  16  16  16  16  16  16   8  16  16  16   8  16  16  16  16  16  16  16  16  16  16  16  16  16  16  16  16  16  16  16  16  16  16  16  16  16  16  16  16  16  16  16  16  16  16  16  16  16  16  16  16  16  16  16  16  16  16  16  16  16  16  16  16   8  16  16  16  16  16  16  16  16

  15  15  15  15   8  15  15  15  15  15  15  15   8  15  15  15  15  15  15  15  15  15  15  15  15  15   8  15  15  15  15  15  15  15  15  15  15  15  15  15  15  15  15  15  15  15  15  15  15   8  15  15  15  15  15  15  15   8  15  15   8  15  15  15  15  15  15  15  15  15  15   8  15  15  15  15  15  15  15  15  15  15  15  15  15   8  15   8  15  15  15  15  15  15  15  15  15  15  15  15  15  15  15   8  15  15  15  15  15   8  15  15  15  15  15  15  15  15  15  15  15  15  15  15  15  15  15  15  15  15  15  15  15  15  15  15   8  15  15  15  15   8  15  15  15  15  15  15  15  15  15  15   8  15   8  15  15  15  15  15  15  15  15  15  15  15  15  15  15  15  15   8  15  15  15  15  15  15  15   8   8  15   8  15  15  15  15  15  15  15  15  15  15  15  15  15  15  15  15  15   8  15  15  15  15  15  15  15  15  15  15  15  15  15  15  15  15  15   8  15  15  15  15  15  15  15  15  15  15  15  15  15  15  15  15   8  15  15  15  15  15  15  15  15  15  15  15  15  15  15  15  15  15  15  15  15  15   8  15  15  15  15  15  15  15  15  15  15  15  15  15   8  15  15  15  15  15  15  15  15  15  15  15  15  15  15  15  15  15  15  15  15  15   8  15  15  15  15  15  15  15  15  15  15  15  15  15  15   8  15  15  15  15  15   8  15   8  15  15  15  15  15  15  15  15  15  15  15  15  15  15  15  15  15  15  15  15  15   8  15  15  15  15   8  15   8   8  15  15  15  15  15   8  15  15  15  15   8  15  15  15  15  15  15  15  15  15  15  15   8  15  15  15   8  15  15  15  15  15  15  15  15   8  15  15  15  15  15  15  15  15  15  15   8  15  15  15  15  15  15  15  15  15  15  15  15  15  15   8  15  15  15  15  15  15  15  15  15  15   8  15  15  15   8  15  15  15   8  15  15  15  15  15  15  15  15  15  15  15  15  15  15  15  15  15   8  15  15  15  15  15  15  15  15   8  15  15  15  15  15  15  15  15  15  15  15   8  15  15  15  15  15  15  15  15  15  15  15  15  15  15  15  15  15  15  15  15  15  15  15  15   8  15  15  15  15  15  15  15  15  15  15  15  15  15  15  15  15  15  15   8  15  15  15  15  15  15  15  15  15  15  15  15  15  15  15  15  15  15  15  15   8  15   8  15  15  15  15  15  15   8  15  15  15  15  15  15  15  15  15  15  15  15  15  15  15   8  15  15  15  15  15  15  15   8  15  15  15   8  15  15  15  15  15  15  15  15  15  15  15  15  15  15  15  15  15  15  15  15  15  15  15  15  15  15  15  15  15  15  15  15  15  15  15  15  15  15  15  15  15  15  15  15  15  15  15  15  15  15  15  15   8  15  15  15  15  15  15  15  15

  15  15  15  15   8  15  15  15  15  15  15  15   8  15  15  15  15  15  15  15  15  15  15  15  15  15   8  15  15  15  15  15  15  15  15  15  15  15  15  15  15  15  15  15  15  15  15  15  15   8  15  15  15  15  15  15  15   8  15  15   8  15  15  15  15  15  15  15  15  15  15   8  15  15  15  15  15  15  15  15  15  15  15  15  15   8  15   8  15  15  15  15  15  15  15  15  15  15  15  15  15  15  15   8  15  15  15  15  15   8  15  15  15  15  15  15  15  15  15  15  15  15  15  15  15  15  15  15  15  15  15  15  15  15  15  15   8  15  15  15  15   8  15  15  15  15  15  15  15  15  15  15   8  15   8  15  15  15  15  15  15  15  15  15  15  15  15  15  15  15  15   8  15  15  15  15  15  15  15   8   8  15   8  15  15  15  15  15  15  15  15  15  15  15  15  15  15  15  15  15   8  15  15  15  15  15  15  15  15  15  15  15  15  15  15  15  15  15   8  15  15  15  15  15  15  15  15  15  15  15  15  15  15  15  15   8  15  15  15  15  15  15  15  15  15  15  15  15  15  15  15  15  15  15  15  15  15   8  15  15  15  15  15  15  15  15  15  15  15  15  15   8  15  15  15  15  15  15  15  15  15  15  15  15  15  15  15  15  15  15  15  15  15   8  15  15  15  15  15  15  15  15  15  15  15  15  15  15   8  15  15  15  15  15   8  15   8  15  15  15  15  15  15  15  15  15  15  15  15  15  15  15  15  15  15  15  15  15   8  15  15  15  15   8  15   8   8  15  15  15  15  15   8  15  15  15  15   8  15  15  15  15  15  15  15  15  15  15  15   8  15  15  15   8  15  15  15  15  15  15  15  15   8  15  15  15  15  15  15  15  15  15  15   8  15  15  15  15  15  15  15  15  15  15  15  15  15  15   8  15  15  15  15  15  15  15  15  15  15   8  15  15  15   8  15  15  15   8  15  15  15  15  15  15  15  15  15  15  15  15  15  15  15  15  15   8  15  15  15  15  15  15  15  15   8  15  15  15  15  15  15  15  15  15  15  15   8  15  15  15  15  15  15  15  15  15  15  15  15  15  15  15  15  15  15  15  15  15  15  15  15   8  15  15  15  15  15  15  15  15  15  15  15  15  15  15  15  15  15  15   8  15  15  15  15  15  15  15  15  15  15  15  15  15  15  15  15  15  15  15  15   8  15   8  15  15  15  15  15  15   8  15  15  15  15  15  15  15  15  15  15  15  15  15  15  15   8  15  15  15  15  15  15  15   8  15  15  15   8  15  15  15  15  15  15  15  15  15  15  15  15  15  15  15  15  15  15  15  15  15  15  15  15  15  15  15  15  15  15  15  15  15  15  15  15  15  15  15  15  15  15  15  15  15  15  15  15  15  15  15  15   8  15  15  15  15  15  15  15  15

************************************************************************
